20	5
0	10	7	6	5	8	9	11	2	3	4	1
1	1	15
2	1	14
3	0
4	4	16	15	18	20
5	2	15	14
6	2	12	13
7	2	12	13
8	2	17	12
9	1	14
10	1	16
11	1	15
12	1	10
13	5	20	19	17	1	16
14	4	12	19	17	20
15	2	17	19
16	1	21
17	1	21
18	1	21
19	1	21
20	1	21
21	0
0	0	0	0	0	0	0
1	3	5	2	4	3	3
2	2	4	2	1	1	2
3	3	4	4	1	5	2
4	1	3	1	1	2	5
5	7	1	5	4	5	1
6	10	4	1	5	5	4
7	1	1	3	5	2	4
8	6	5	3	3	2	2
9	2	1	3	3	4	3
10	3	2	4	3	2	3
11	9	4	3	3	5	1
12	3	3	4	4	4	2
13	3	5	4	5	1	4
14	8	4	3	1	3	3
15	8	1	3	2	5	3
16	10	5	1	3	3	3
17	4	2	5	2	2	3
18	2	1	2	2	4	4
19	1	2	5	4	4	5
20	8	2	1	2	2	2
21	0	0	0	0	0	0
10	9	9	10	10
